
Gurobi 12.0.1 (win64, C++) logging started Tue Apr 22 09:15:27 2025

Set parameter Username
Set parameter LicenseID to value 2618661
Academic license - for non-commercial use only - expires 2026-02-05
Set parameter Threads to value 8
Set parameter LazyConstraints to value 1
Set parameter PreCrush to value 1
Set parameter Seed to value 10
Set parameter Cuts to value -1
Set parameter TimeLimit to value 28800
Set parameter NumericFocus to value 0
Set parameter SolutionLimit to value 10000
Gurobi Optimizer version 12.0.1 build v12.0.1rc0 (win64 - Windows Server 2022.0 (20348.2))

CPU model: AMD EPYC 7513 32-Core Processor, instruction set [SSE2|AVX|AVX2]
Thread count: 18 physical cores, 18 logical processors, using up to 8 threads

Non-default parameters:
SolutionLimit  10000
TimeLimit  28800
PreCrush  1
Seed  10
Threads  8
LazyConstraints  1

Optimize a model with 277 rows, 529 columns and 1518 nonzeros
Model fingerprint: 0xcddafe84
Variable types: 0 continuous, 529 integer (529 binary)
Coefficient statistics:
  Matrix range     [1e+00, 1e+00]
  Objective range  [4e+00, 1e+02]
  Bounds range     [1e+00, 1e+00]
  RHS range        [1e+00, 4e+00]

User MIP start produced solution with objective 706.37 (0.00s)
Loaded user MIP start with objective 706.37

Presolve removed 6 rows and 33 columns
Presolve time: 0.00s
Presolved: 271 rows, 496 columns, 1422 nonzeros
Variable types: 0 continuous, 496 integer (496 binary)

Root relaxation: objective 5.577212e+02, 79 iterations, 0.00 seconds (0.00 work units)

    Nodes    |    Current Node    |     Objective Bounds      |     Work
 Expl Unexpl |  Obj  Depth IntInf | Incumbent    BestBd   Gap | It/Node Time

     0     0  557.72123    0    -  706.36966  557.72123  21.0%     -    0s
     0     0  565.67595    0    -  706.36966  565.67595  19.9%     -    0s
     0     0  566.12691    0    -  706.36966  566.12691  19.9%     -    0s
     0     0  574.35112    0    -  706.36966  574.35112  18.7%     -    0s
     0     0  592.64137    0    -  706.36966  592.64137  16.1%     -    0s
     0     0  601.80815    0    -  706.36966  601.80815  14.8%     -    0s
     0     0  602.07329    0    -  706.36966  602.07329  14.8%     -    0s
     0     0  606.76881    0    -  706.36966  606.76881  14.1%     -    0s
     0     0  613.87087    0    -  706.36966  613.87087  13.1%     -    0s
     0     0  619.26537    0    -  706.36966  619.26537  12.3%     -    0s
     0     0  619.44577    0    -  706.36966  619.44577  12.3%     -    0s
     0     0  621.69807    0    -  706.36966  621.69807  12.0%     -    0s
     0     0  622.21417    0   22  706.36966  622.21417  11.9%     -    0s
     0     0  623.48228    0   50  706.36966  623.48228  11.7%     -    0s
     0     0  628.42437    0   43  706.36966  628.42437  11.0%     -    0s
     0     0  638.48252    0   33  706.36966  638.48252  9.61%     -    0s
     0     0  639.85867    0   37  706.36966  639.85867  9.42%     -    0s
     0     2  639.85867    0   37  706.36966  639.85867  9.42%     -    0s
*    8    12               3     660.5329681  652.60632  1.20%  29.0    0s
*   68    16              11     658.2098351  654.32980  0.59%  12.6    0s

Cutting planes:
  MIR: 2
  Lazy constraints: 339

Explored 129 nodes (1757 simplex iterations) in 0.92 seconds (0.11 work units)
Thread count was 8 (of 18 available processors)

Solution count 3: 658.21 660.533 706.37 

Optimal solution found (tolerance 1.00e-04)
Best objective 6.582098350852e+02, best bound 6.582098350852e+02, gap 0.0000%

User-callback calls 560, time in user-callback 0.61 sec
### START EXACT APPROACH ###
ProblemVariant: 6
### START PREPROCESSING ###
## Start infeasible path procedure ## 
Deleted arcs: 10
Infeasible tail paths: 0
Infeasible 2-node combinations: 5
Deleted arcs: 10
Infeasible tail paths: 0
Infeasible 2-node combinations: 5
## Start start solution procedure ##
Start solution with 4 Vehicles and total costs 706.37 in 0.003477 s.
### END PREPROCESSING ###
Route 0 0-7-9-8-5-4-21-0 : weight util 0.572222 | volume util 0.813978 | 
Route 1 0-12-11-6-1-2-3-15-16-0 : weight util 0.270889 | volume util 0.997044 | 
Route 2 0-13-10-0 : weight util 0.966667 | volume util 0.170489 | 
Route 3 0-18-19-20-22-17-14-0 : weight util 0.454444 | volume util 0.879933 | 
